      0      75     115     197     362      61     137     128     149     100 
     75       0      50     154     361      47     176     134     126     155 
    115      50       0     106     329      60     177     119      92     171 
    197     154     106       0     239     135     181     110      58     202 
    362     361     329     239       0     321     244     234     237     293 
     61      47      60     135     321       0     129      88      93     113 
    137     176     177     181     244     129       0      71     123      48 
    128     134     119     110     234      88      71       0      52      94 
    149     126      92      58     237      93     123      52       0     143 
    100     155     171     202     293     113      48      94     143       0 
